70 5531585
59 67 40 30 70 43 46 69 47 36 8 50 38 49 19 15 64 3 48 54 6 65 12 44 2 29 23 53 21 11 4 10 32 61 39 57 52 5 63 66 35 51 26 1 58 37 20 16 22 60 33 9 34 17 41 18 7 14 42 27 13 62 68 25 31 24 28 55 45 56 
